VERSION: GPU-Pop B1+B2+B3-reduce
NAME: BERLIN52
DIMENSION: 52
Islands: 128
Generations: 1000

Best tour length: 9566
	Command being timed: "./build/CUDA-GA-B3-reduce data/berlin52.tsp 128 1000 0.05 2 42"
	User time (seconds): 0.03
	System time (seconds): 0.10
	Percent of CPU this job got: 93%
	Elapsed (wall clock) time (h:mm:ss or m:ss): 0:00.15
	Average shared text size (kbytes): 0
	Average unshared data size (kbytes): 0
	Average stack size (kbytes): 0
	Average total size (kbytes): 0
	Maximum resident set size (kbytes): 122176
	Average resident set size (kbytes): 0
	Major (requiring I/O) page faults: 1
	Minor (reclaiming a frame) page faults: 5525
	Voluntary context switches: 52
	Involuntary context switches: 3
	Swaps: 0
	File system inputs: 1960
	File system outputs: 8
	Socket messages sent: 0
	Socket messages received: 0
	Signals delivered: 0
	Page size (bytes): 4096
	Exit status: 0
